Route 1: 65 82 69 88 90 66 56 91 93 80
Route 2: 92 95 61 81 94 96 54 68 70 100
Route 3: 98 12 78 53 55 60
Route 4: 83 52 99 86 57 20 24 25
Route 5: 64 51 85 84 74
Route 6: 62 67 71 35 37
Route 7: 5 45 2 7 6 8 46 4 1
Route 8: 72 39 38 44 41 43
Route 9: 14 47 15 11 16 9 10 13 17
Route 10: 23 21 19 49 22 77 48
Route 11: 27 29 31 30 34 50
Route 12: 59 75 87 97 58
Route 13: 42 36 40
Route 14: 63 76 18 89
Route 15: 73 79 3
Route 16: 33 28 26 32
Vehicles: 16
Distance: 1987.83
